(set-logic QF_NRA)
(declare-fun skoY () Real)
(declare-fun skoX () Real)
(declare-fun skoZ () Real)
(assert (and (<= (+ (* (- 6435) (* skoY skoX)) (* 12012 (* skoY skoY)) (* (- 12012) (* skoY skoY skoY skoX)) (* 6930 (* skoY skoY skoY skoY)) (* (- 6930) (* skoY skoY skoY skoY skoY skoX)) (* 1260 (* skoY skoY skoY skoY skoY skoY)) (* (- 1260) (* skoY skoY skoY skoY skoY skoY skoY skoX)) (* 35 (* skoY skoY skoY skoY skoY skoY skoY skoY)) (* (- 35) (* skoY skoY skoY skoY skoY skoY skoY skoY skoY skoX))) (- 6435)) (and (<= (+ (* 6435 (* skoY skoX)) (* (- 12012) (* skoY skoY)) (* 12012 (* skoY skoY skoY skoX)) (* (- 6930) (* skoY skoY skoY skoY)) (* 6930 (* skoY skoY skoY skoY skoY skoX)) (* (- 1260) (* skoY skoY skoY skoY skoY skoY)) (* 1260 (* skoY skoY skoY skoY skoY skoY skoY skoX)) (* (- 35) (* skoY skoY skoY skoY skoY skoY skoY skoY)) (* 35 (* skoY skoY skoY skoY skoY skoY skoY skoY skoY skoX))) 6435) (and (not (<= (+ (* (- 900900) skoX) (* (- 900900) skoZ) (* 225225 (* skoY skoX)) (* (- 420420) (* skoY skoY)) (* (- 2582580) (* skoY skoY skoX)) (* (- 300300) (* skoY skoY skoY)) (* 900900 (* skoY skoX skoZ)) (* (- 1681680) (* skoY skoY skoZ)) (* 420420 (* skoY skoY skoY skoX)) (* (- 242550) (* skoY skoY skoY skoY)) (* (- 2351580) (* skoY skoY skoY skoY skoX)) (* (- 380380) (* skoY skoY skoY skoY skoY)) (* 1681680 (* skoY skoY skoY skoX skoZ)) (* (- 970200) (* skoY skoY skoY skoY skoZ)) (* 242550 (* skoY skoY skoY skoY skoY skoX)) (* (- 44100) (* skoY skoY skoY skoY skoY skoY)) (* (- 766220) (* skoY skoY skoY skoY skoY skoY skoX)) (* (- 115764) (* skoY skoY skoY skoY skoY skoY skoY)) (* 970200 (* skoY skoY skoY skoY skoY skoX skoZ)) (* (- 176400) (* skoY skoY skoY skoY skoY skoY skoZ)) (* 44100 (* skoY skoY skoY skoY skoY skoY skoY skoX)) (* (- 1225) (* skoY skoY skoY skoY skoY skoY skoY skoY)) (* (- 65536) (* skoY skoY skoY skoY skoY skoY skoY skoY skoX)) (* 176400 (* skoY skoY skoY skoY skoY skoY skoY skoX skoZ)) (* (- 4900) (* skoY skoY skoY skoY skoY skoY skoY skoY skoZ)) (* (- 4900) (* skoY skoY skoY skoY skoY skoY skoY skoY skoY)) (* 1225 (* skoY skoY skoY skoY skoY skoY skoY skoY skoY skoX)) (* 4900 (* skoY skoY skoY skoY skoY skoY skoY skoY skoY skoX skoZ))) 225225)) (and (not (<= (* (- 1) skoY) 0)) (and (or (not (<= (+ (* (- 1) skoY) (* (- 1) skoX) (* (- 1) skoZ) (* skoY skoX skoZ)) 0)) (<= (* (- 1) skoY) 0)) (and (<= (+ skoY skoX skoZ (* skoY skoX) (* (- 1) (* skoY skoX skoZ))) 1) (and (not (<= (* (- 1) skoX) 0)) (and (or (not (<= (* (- 1) skoX) 0)) (<= (+ skoY skoX skoZ (* skoY skoX) (* (- 1) (* skoY skoX skoZ))) 1)) (and (or (<= (* (- 1) skoY) 0) (<= (+ skoY skoX skoZ (* skoY skoX) (* (- 1) (* skoY skoX skoZ))) 1)) (and (or (not (<= (* (- 1) skoY) 0)) (<= (+ (* (- 1) skoY) (* (- 1) skoX) (* (- 1) skoZ) (* skoY skoX skoZ)) 0)) (and (not (<= skoZ 0)) (and (not (<= skoX (- 1))) (and (not (<= (* (- 1) skoY) (- 1))) (not (<= (+ skoY (* (- 1) skoX)) 0))))))))))))))))
(set-info :status unsat)
(check-sat)
